p cnf 114 301
c ind 97 100 106 110 112 102 104 108 95 111 0
c ind 98 93 109 94 87 103 96 99 105 107 0
c ind 88 91 101 90 92 89 1 0
c ret 58 67 68 69 70 71 72 73 74 75 0
c ret 76 59 77 78 79 80 81 82 83 84 0
c ret 85 86 60 61 62 63 64 65 66 0
2 3 -38 -41 -44 0
-2 -3 0
-2 44 0
-2 41 0
-2 38 0
3 4 -17 -20 -24 0
-3 -4 0
-3 24 0
-3 20 0
-3 17 0
4 -5 10 11 -12 0
-4 12 0
-4 -11 0
-4 5 0
-4 -10 0
5 -6 -7 0
5 -7 85 -103 0
5 -7 -85 103 0
-5 7 0
-5 6 85 103 0
-5 6 -85 -103 0
6 67 -91 0
6 -67 91 0
-6 -67 -91 0
-6 67 91 0
7 -8 9 0
7 9 -85 101 0
7 9 85 -101 0
-7 -9 0
-7 8 -85 -101 0
-7 8 85 101 0
8 67 -90 0
8 -67 90 0
-8 -67 -90 0
-8 67 90 0
9 -67 85 -95 111 0
9 67 -85 95 -111 0
9 67 85 95 111 0
9 -67 -85 -95 -111 0
-9 -67 95 0
-9 67 -95 0
-9 85 -111 0
-9 -85 111 0
10 -67 85 -93 107 0
10 67 -85 93 -107 0
10 67 85 93 107 0
10 -67 -85 -93 -107 0
-10 -67 93 0
-10 67 -93 0
-10 85 -107 0
-10 -85 107 0
11 -67 85 -87 98 0
11 67 -85 87 -98 0
11 67 85 87 98 0
11 -67 -85 -87 -98 0
-11 -67 87 0
-11 67 -87 0
-11 85 -98 0
-11 -85 98 0
12 13 14 15 16 0
-12 -16 0
-12 -15 0
-12 -13 0
-12 -14 0
13 -67 85 -89 99 0
13 67 -85 89 -99 0
13 67 85 89 99 0
13 -67 -85 -89 -99 0
-13 -67 89 0
-13 67 -89 0
-13 85 -99 0
-13 -85 99 0
14 -67 85 -94 109 0
14 67 -85 94 -109 0
14 67 85 94 109 0
14 -67 -85 -94 -109 0
-14 -67 94 0
-14 67 -94 0
-14 85 -109 0
-14 -85 109 0
15 -67 85 -92 105 0
15 67 -85 92 -105 0
15 67 85 92 105 0
15 -67 -85 -92 -105 0
-15 -67 92 0
-15 67 -92 0
-15 85 -105 0
-15 -85 105 0
16 -67 85 -88 96 0
16 67 -85 88 -96 0
16 67 85 88 96 0
16 -67 -85 -88 -96 0
-16 -67 88 0
-16 67 -88 0
-16 85 -96 0
-16 -85 96 0
17 -18 93 94 95 0
-17 18 0
-17 -95 0
-17 -93 0
-17 -94 0
18 -19 87 88 0
-18 19 0
-18 -88 0
-18 -87 0
19 89 90 91 92 0
-19 -92 0
-19 -91 0
-19 -89 0
-19 -90 0
20 21 -22 23 111 0
20 21 22 23 -111 0
-20 -21 0
-20 -22 -111 0
-20 -23 0
-20 22 111 0
21 105 -106 0
21 91 -103 105 0
-21 -105 0
-21 -91 106 0
-21 103 106 0
22 -94 112 0
22 109 112 0
-22 -112 0
-22 94 -109 0
23 -90 -103 104 0
23 101 -103 104 0
-23 103 0
-23 -104 0
-23 90 -101 0
24 -25 -26 -29 99 0
24 25 -26 -29 -99 0
-24 29 0
-24 25 99 0
-24 26 0
-24 -25 -99 0
25 -88 100 0
25 96 100 0
-25 -100 0
-25 88 -96 0
26 27 107 0
26 28 105 0
26 27 28 0
26 105 107 0
-26 -27 -105 0
-26 -28 -107 0
27 -91 106 0
27 103 106 0
-27 -106 0
-27 91 -103 0
28 -92 108 0
28 105 108 0
-28 -108 0
-28 92 -105 0
29 -30 -34 0
-29 30 0
-29 34 0
30 31 -32 33 109 0
30 31 32 33 -109 0
-30 -31 0
-30 -32 -109 0
-30 -33 0
-30 32 109 0
31 107 -108 0
31 92 -105 107 0
-31 -107 0
-31 -92 108 0
-31 105 108 0
32 -93 110 0
32 107 110 0
-32 -110 0
-32 93 -107 0
33 101 -102 0
33 89 -99 101 0
-33 -101 0
-33 -89 102 0
-33 99 102 0
34 35 -36 37 96 0
34 35 36 37 -96 0
-34 -35 0
-34 -36 -96 0
-34 -37 0
-34 36 96 0
35 103 -104 0
35 90 -101 103 0
-35 -103 0
-35 -90 104 0
-35 101 104 0
36 97 98 0
36 -87 97 0
-36 -97 0
-36 87 -98 0
37 -89 -101 102 0
37 99 -101 102 0
-37 101 0
-37 -102 0
-37 89 -99 0
38 39 -40 -73 85 0
38 -39 -40 73 85 0
38 -39 40 73 -85 0
38 39 40 -73 -85 0
-38 -39 -73 0
-38 39 73 0
-38 40 85 0
-38 -40 -85 0
39 -60 74 0
39 71 74 0
-39 -74 0
-39 60 -71 0
40 -66 86 0
40 83 86 0
-40 -86 0
-40 66 -83 0
41 42 -43 -71 77 0
41 -42 -43 71 77 0
41 -42 43 71 -77 0
41 42 43 -71 -77 0
-41 -42 -71 0
-41 42 71 0
-41 43 77 0
-41 -43 -77 0
42 -59 72 0
42 68 72 0
-42 -72 0
-42 59 -68 0
43 -62 78 0
43 75 78 0
-43 -78 0
-43 62 -75 0
44 -45 -48 -49 83 0
44 -45 48 -49 -83 0
-44 49 0
-44 -48 -83 0
-44 45 0
-44 48 83 0
45 46 81 0
45 47 68 0
45 46 47 0
45 68 81 0
-45 -46 -68 0
-45 -47 -81 0
46 69 70 0
46 -58 69 0
-46 -69 0
-46 58 -70 0
47 -64 82 0
47 79 82 0
-47 -82 0
-47 64 -79 0
48 -65 84 0
48 81 84 0
-48 -84 0
-48 65 -81 0
49 -50 -54 -55 79 0
49 -50 54 -55 -79 0
-49 55 0
-49 -54 -79 0
-49 50 0
-49 54 79 0
50 -51 52 53 75 0
50 51 52 53 -75 0
-50 -52 0
-50 51 75 0
-50 -53 0
-50 -51 -75 0
51 -61 76 0
51 73 76 0
-51 -76 0
-51 61 -73 0
52 68 -69 0
52 58 68 -70 0
-52 -68 0
-52 -58 69 0
-52 69 70 0
53 81 -82 0
53 64 -79 81 0
-53 -81 0
-53 -64 82 0
-53 79 82 0
54 -63 80 0
54 77 80 0
-54 -80 0
-54 63 -77 0
55 -56 -57 58 59 0
-55 -58 0
-55 57 0
-55 56 0
-55 -59 0
56 64 65 66 67 0
-56 -67 0
-56 -66 0
-56 -64 0
-56 -65 0
57 60 61 62 63 0
-57 -63 0
-57 -62 0
-57 -60 0
-57 -61 0
1 2 0
-1 -2 0
113 0

